(set-info :origin "SVCOMP13 benchmarks generated by Arie Gurfinkel")
(set-info :status unsat)
(set-logic HORN)
(declare-fun cp-rel-entry () Bool)
(declare-fun cp-rel-bb.i190.i.outer
             (Real
              Real
              Real
              Real
              Real
              Real
              Real
              Real
              Real
              Real
              Real
              Real
              Real
              Real
              Real
              Real
              Real
              Real)
             Bool)
(declare-fun cp-rel-bb.i190.i
             (Bool
              Real
              Real
              Real
              Real
              Real
              Real
              Real
              Real
              Real
              Real
              Real
              Real
              Real
              Real
              Real
              Real
              Real)
             Bool)
(declare-fun cp-rel-UnifiedReturnBlock () Bool)
(declare-fun cp-rel-__UFO__0
             (Real
              Real
              Real
              Real
              Real
              Real
              Real
              Real
              Real
              Real
              Real
              Real
              Real
              Real
              Real
              Real
              Real
              Bool
              Real
              Real
              Real
              Real
              Real
              Real
              Real
              Real
              Real
              Real
              Real
              Real
              Real
              Real
              Real
              Real
              Real)
             Bool)
(assert |cp-rel-entry|)
(assert (forall ((?A Real) (?B Real) (?C Real) (?D Real) (?E Real) (?F Real) (?G Real) (?H Real) (?I Real) (?J Real) (?K Real) (?L Real) (?M Real) (?N Real) (?O Real) (?P Real) (?Q Real) (?R Real) (?S Bool) )(let (($x839761 (|cp-rel-bb.i190.i.outer| ?A ?B ?C ?D ?E ?F ?G ?H ?I ?J ?K ?L ?M ?N ?O ?P ?Q ?R)))
(let (($x261834 (= ?S true)))
(let (($x155132 (and |cp-rel-entry| (<= ?R 0.0) (>= ?Q 0.0) (<= ?Q 0.0) (>= ?P 0.0) (<= ?P 0.0) (>= ?O 0.0) (<= ?O 0.0) (>= ?N 0.0) (<= ?N 0.0) (>= ?M 0.0) (<= ?M 0.0) (>= ?L 0.0) (<= ?L 0.0) (>= ?K 0.0) (<= ?K 0.0) (>= ?J 0.0) (<= ?J 0.0) (>= ?I 0.0) (<= ?I 0.0) (>= ?H 0.0) (<= ?H 0.0) (>= ?G 0.0) (<= ?G 0.0) (>= ?F 0.0) (<= ?F 0.0) (>= ?E 0.0) (<= ?E 0.0) (>= ?D 0.0) (<= ?D 0.0) (>= ?C 0.0) (<= ?C 0.0) (>= ?B 0.0) (<= ?B 0.0) (>= ?A 0.0) (<= ?A 0.0) $x261834 (>= ?R 0.0))))
(=> $x155132 $x839761)))))
)
(assert (forall ((?A Real) (?B Real) (?C Real) (?D Real) (?E Real) (?F Real) (?G Real) (?H Real) (?I Real) (?J Real) (?K Real) (?L Real) (?M Real) (?N Real) (?O Real) (?P Real) (?Q Real) (?R Real) (?S Bool) (?T Real) (?U Real) (?V Real) (?W Real) (?X Real) (?Y Real) (?Z Real) (?A1 Real) (?B1 Real) (?C1 Real) (?D1 Real) (?E1 Real) (?F1 Real) (?G1 Real) (?H1 Real) (?I1 Real) (?J1 Real) (?K1 Bool) (?L1 Bool) (?M1 Bool) (?N1 Bool) (?O1 Bool) (?P1 Bool) (?Q1 Bool) (?R1 Bool) (?S1 Bool) (?T1 Bool) (?U1 Bool) (?V1 Bool) (?W1 Bool) (?X1 Bool) (?Y1 Bool) (?Z1 Bool) (?A2 Bool) (?B2 Bool) (?C2 Bool) (?D2 Bool) (?E2 Bool) (?F2 Real) (?G2 Real) (?H2 Real) (?I2 Real) (?J2 Real) (?K2 Real) (?L2 Real) (?M2 Bool) (?N2 Bool) (?O2 Bool) (?P2 Bool) (?Q2 Bool) (?R2 Bool) (?S2 Bool) (?T2 Bool) (?U2 Bool) (?V2 Bool) (?W2 Bool) (?X2 Bool) (?Y2 Bool) (?Z2 Real) (?A3 Real) (?B3 Real) (?C3 Real) (?D3 Real) (?E3 Real) (?F3 Bool) (?G3 Bool) (?H3 Bool) (?I3 Bool) (?J3 Bool) (?K3 Bool) (?L3 Bool) (?M3 Bool) (?N3 Bool) (?O3 Bool) (?P3 Bool) (?Q3 Bool) (?R3 Bool) (?S3 Bool) (?T3 Real) (?U3 Real) (?V3 Real) (?W3 Real) (?X3 Real) (?Y3 Real) (?Z3 Bool) (?A4 Bool) (?B4 Bool) (?C4 Bool) (?D4 Bool) (?E4 Bool) (?F4 Bool) (?G4 Bool) (?H4 Bool) (?I4 Bool) (?J4 Bool) (?K4 Bool) (?L4 Bool) (?M4 Bool) (?N4 Real) (?O4 Real) (?P4 Real) (?Q4 Real) (?R4 Real) (?S4 Real) (?T4 Bool) (?U4 Bool) (?V4 Bool) (?W4 Bool) (?X4 Bool) (?Y4 Bool) (?Z4 Bool) (?A5 Bool) (?B5 Bool) (?C5 Bool) (?D5 Bool) (?E5 Bool) (?F5 Bool) (?G5 Bool) (?H5 Real) (?I5 Real) (?J5 Real) (?K5 Real) (?L5 Real) (?M5 Real) (?N5 Bool) (?O5 Bool) (?P5 Bool) (?Q5 Bool) (?R5 Bool) (?S5 Bool) (?T5 Bool) (?U5 Bool) (?V5 Bool) (?W5 Bool) (?X5 Bool) (?Y5 Bool) (?Z5 Bool) (?A6 Bool) (?B6 Real) (?C6 Real) (?D6 Real) (?E6 Real) (?F6 Real) (?G6 Real) (?H6 Bool) (?I6 Bool) (?J6 Bool) (?K6 Bool) (?L6 Bool) (?M6 Bool) (?N6 Bool) (?O6 Bool) (?P6 Bool) (?Q6 Bool) (?R6 Bool) (?S6 Bool) (?T6 Bool) (?U6 Bool) (?V6 Real) (?W6 Real) (?X6 Real) (?Y6 Real) (?Z6 Real) (?A7 Real) (?B7 Bool) (?C7 Bool) (?D7 Bool) (?E7 Bool) (?F7 Bool) (?G7 Bool) (?H7 Bool) (?I7 Bool) (?J7 Bool) (?K7 Bool) (?L7 Bool) (?M7 Real) (?N7 Real) (?O7 Bool) (?P7 Real) (?Q7 Real) (?R7 Bool) (?S7 Bool) (?T7 Bool) (?U7 Bool) (?V7 Bool) (?W7 Bool) (?X7 Bool) (?Y7 Bool) (?Z7 Bool) (?A8 Bool) (?B8 Bool) (?C8 Bool) (?D8 Bool) (?E8 Bool) (?F8 Bool) (?G8 Bool) (?H8 Bool) (?I8 Bool) (?J8 Bool) (?K8 Bool) (?L8 Bool) (?M8 Bool) (?N8 Bool) (?O8 Bool) (?P8 Bool) (?Q8 Bool) (?R8 Real) (?S8 Bool) (?T8 Bool) (?U8 Real) (?V8 Bool) (?W8 Real) (?X8 Bool) (?Y8 Real) (?Z8 Bool) (?A9 Real) (?B9 Bool) (?C9 Real) (?D9 Bool) (?E9 Real) (?F9 Bool) (?G9 Real) (?H9 Real) (?I9 Bool) )(let (($x486795 (|cp-rel-bb.i190.i.outer| ?A ?B ?C ?D ?E ?F ?G ?H ?I ?J ?K ?L ?M ?N ?O ?P ?Q ?R)))
(let (($x857180 (not ?W1)))
(let (($x554294 (or $x857180 ?X1)))
(let (($x303035 (or (not ?Z1) (and ?W1 ?A2 (not ?B2)) (and ?Q1 ?C2 (not ?Y1)))))
(let (($x259919 (and ?O1 ?N2 ?V1 (<= ?F2 ?T) (>= ?F2 ?T) (<= ?G2 ?A1) (>= ?G2 ?A1) (<= ?I2 ?B1) (>= ?I2 ?B1) (<= ?J2 ?C1) (>= ?J2 ?C1) (<= ?K2 ?D1) (>= ?K2 ?D1))))
(let (($x900312 (and ?K1 ?M2 ?S1 (<= ?F2 ?T) (>= ?F2 ?T) (<= ?G2 ?A1) (>= ?G2 ?A1) (<= ?I2 ?B1) (>= ?I2 ?B1) (<= ?J2 ?C1) (>= ?J2 ?C1) (<= ?K2 ?D1) (>= ?K2 ?D1))))
(let (($x574996 (and ?Z1 ?E2 (<= ?F2 1.0) (>= ?F2 1.0) (<= ?G2 ?H2) (>= ?G2 ?H2) (<= ?I2 ?H2) (>= ?I2 ?H2) (<= ?J2 2.0) (>= ?J2 2.0) (<= ?K2 ?L2) (>= ?K2 ?L2))))
(let (($x317157 (or (not ?D2) (and ?E2 (not ?M2) (not ?N2)) (and ?M2 (not ?E2) (not ?N2)) (and ?N2 (not ?E2) (not ?M2)))))
(let (($x867946 (not ?U2)))
(let (($x920371 (or $x867946 ?V2)))
(let (($x212157 (>= ?D3 ?E1)))
(let (($x775797 (<= ?D3 ?E1)))
(let (($x123893 (>= ?A3 ?G2)))
(let (($x299072 (<= ?A3 ?G2)))
(let (($x578847 (and ?D2 ?H3 (not ?Q2) (<= ?Z2 ?U) (>= ?Z2 ?U) $x299072 $x123893 (<= ?C3 ?K2) (>= ?C3 ?K2) $x775797 $x212157)))
(let (($x507205 (and ?O2 ?G3 ?T2 (<= ?Z2 ?U) (>= ?Z2 ?U) $x299072 $x123893 (<= ?C3 ?K2) (>= ?C3 ?K2) $x775797 $x212157)))
(let (($x559303 (and ?R2 ?F3 (not ?W2) (<= ?Z2 1.0) (>= ?Z2 1.0) $x299072 $x123893 (<= ?C3 2.0) (>= ?C3 2.0) $x775797 $x212157)))
(let (($x195337 (and ?U2 ?Y2 (<= ?Z2 1.0) (>= ?Z2 1.0) (<= ?A3 ?B3) (>= ?A3 ?B3) (<= ?C3 2.0) (>= ?C3 2.0) (<= ?D3 ?E3) (>= ?D3 ?E3))))
(let (($x568395 (not ?X2)))
(let (($x86197 (or $x568395 (and ?Y2 (not ?F3) (not ?G3) (not ?H3)) (and ?F3 (not ?Y2) (not ?G3) (not ?H3)) (and ?G3 (not ?Y2) (not ?F3) (not ?H3)) (and ?H3 (not ?Y2) (not ?F3) (not ?G3)))))
(let (($x191600 (not ?O3)))
(let (($x42201 (or $x191600 ?P3)))
(let (($x605692 (>= ?X3 ?F1)))
(let (($x839680 (<= ?X3 ?F1)))
(let (($x854698 (>= ?U3 ?A3)))
(let (($x225613 (<= ?U3 ?A3)))
(let (($x57265 (and ?X2 ?B4 (not ?K3) (<= ?T3 ?V) (>= ?T3 ?V) $x225613 $x854698 (<= ?W3 ?D3) (>= ?W3 ?D3) $x839680 $x605692)))
(let (($x31651 (and ?I3 ?A4 ?N3 (<= ?T3 ?V) (>= ?T3 ?V) $x225613 $x854698 (<= ?W3 ?D3) (>= ?W3 ?D3) $x839680 $x605692)))
(let (($x168221 (and ?L3 ?Z3 (not ?Q3) (<= ?T3 1.0) (>= ?T3 1.0) $x225613 $x854698 (<= ?W3 2.0) (>= ?W3 2.0) $x839680 $x605692)))
(let (($x80170 (and ?O3 ?S3 (<= ?T3 1.0) (>= ?T3 1.0) (<= ?U3 ?V3) (>= ?U3 ?V3) (<= ?W3 2.0) (>= ?W3 2.0) (<= ?X3 ?Y3) (>= ?X3 ?Y3))))
(let (($x489737 (not ?R3)))
(let (($x288892 (or $x489737 (and ?S3 (not ?Z3) (not ?A4) (not ?B4)) (and ?Z3 (not ?S3) (not ?A4) (not ?B4)) (and ?A4 (not ?S3) (not ?Z3) (not ?B4)) (and ?B4 (not ?S3) (not ?Z3) (not ?A4)))))
(let (($x278462 (not ?I4)))
(let (($x757861 (or $x278462 ?J4)))
(let (($x229882 (>= ?R4 ?G1)))
(let (($x42843 (<= ?R4 ?G1)))
(let (($x165816 (>= ?O4 ?U3)))
(let (($x338378 (<= ?O4 ?U3)))
(let (($x438395 (and ?R3 ?V4 (not ?E4) (<= ?N4 ?W) (>= ?N4 ?W) $x338378 $x165816 (<= ?Q4 ?X3) (>= ?Q4 ?X3) $x42843 $x229882)))
(let (($x522934 (and ?C4 ?U4 ?H4 (<= ?N4 ?W) (>= ?N4 ?W) $x338378 $x165816 (<= ?Q4 ?X3) (>= ?Q4 ?X3) $x42843 $x229882)))
(let (($x345738 (and ?F4 ?T4 (not ?K4) (<= ?N4 1.0) (>= ?N4 1.0) $x338378 $x165816 (<= ?Q4 2.0) (>= ?Q4 2.0) $x42843 $x229882)))
(let (($x478947 (and ?I4 ?M4 (<= ?N4 1.0) (>= ?N4 1.0) (<= ?O4 ?P4) (>= ?O4 ?P4) (<= ?Q4 2.0) (>= ?Q4 2.0) (<= ?R4 ?S4) (>= ?R4 ?S4))))
(let (($x649768 (not ?L4)))
(let (($x639374 (or $x649768 (and ?M4 (not ?T4) (not ?U4) (not ?V4)) (and ?T4 (not ?M4) (not ?U4) (not ?V4)) (and ?U4 (not ?M4) (not ?T4) (not ?V4)) (and ?V4 (not ?M4) (not ?T4) (not ?U4)))))
(let (($x596976 (not ?C5)))
(let (($x345141 (or $x596976 ?D5)))
(let (($x685072 (>= ?L5 ?H1)))
(let (($x638219 (<= ?L5 ?H1)))
(let (($x590532 (>= ?I5 ?O4)))
(let (($x206513 (<= ?I5 ?O4)))
(let (($x29634 (and ?L4 ?P5 (not ?Y4) (<= ?H5 ?X) (>= ?H5 ?X) $x206513 $x590532 (<= ?K5 ?R4) (>= ?K5 ?R4) $x638219 $x685072)))
(let (($x116525 (and ?W4 ?O5 ?B5 (<= ?H5 ?X) (>= ?H5 ?X) $x206513 $x590532 (<= ?K5 ?R4) (>= ?K5 ?R4) $x638219 $x685072)))
(let (($x368359 (and ?Z4 ?N5 (not ?E5) (<= ?H5 1.0) (>= ?H5 1.0) $x206513 $x590532 (<= ?K5 2.0) (>= ?K5 2.0) $x638219 $x685072)))
(let (($x187719 (and ?C5 ?G5 (<= ?H5 1.0) (>= ?H5 1.0) (<= ?I5 ?J5) (>= ?I5 ?J5) (<= ?K5 2.0) (>= ?K5 2.0) (<= ?L5 ?M5) (>= ?L5 ?M5))))
(let (($x871212 (not ?F5)))
(let (($x376624 (or $x871212 (and ?G5 (not ?N5) (not ?O5) (not ?P5)) (and ?N5 (not ?G5) (not ?O5) (not ?P5)) (and ?O5 (not ?G5) (not ?N5) (not ?P5)) (and ?P5 (not ?G5) (not ?N5) (not ?O5)))))
(let (($x153329 (not ?W5)))
(let (($x770593 (or $x153329 ?X5)))
(let (($x400985 (>= ?F6 ?I1)))
(let (($x463468 (<= ?F6 ?I1)))
(let (($x865982 (>= ?C6 ?I5)))
(let (($x14580 (<= ?C6 ?I5)))
(let (($x918189 (and ?F5 ?J6 (not ?S5) (<= ?B6 ?Y) (>= ?B6 ?Y) $x14580 $x865982 (<= ?E6 ?L5) (>= ?E6 ?L5) $x463468 $x400985)))
(let (($x192321 (and ?Q5 ?I6 ?V5 (<= ?B6 ?Y) (>= ?B6 ?Y) $x14580 $x865982 (<= ?E6 ?L5) (>= ?E6 ?L5) $x463468 $x400985)))
(let (($x195716 (and ?T5 ?H6 (not ?Y5) (<= ?B6 1.0) (>= ?B6 1.0) $x14580 $x865982 (<= ?E6 2.0) (>= ?E6 2.0) $x463468 $x400985)))
(let (($x191887 (and ?W5 ?A6 (<= ?B6 1.0) (>= ?B6 1.0) (<= ?C6 ?D6) (>= ?C6 ?D6) (<= ?E6 2.0) (>= ?E6 2.0) (<= ?F6 ?G6) (>= ?F6 ?G6))))
(let (($x584438 (not ?Z5)))
(let (($x379196 (or $x584438 (and ?A6 (not ?H6) (not ?I6) (not ?J6)) (and ?H6 (not ?A6) (not ?I6) (not ?J6)) (and ?I6 (not ?A6) (not ?H6) (not ?J6)) (and ?J6 (not ?A6) (not ?H6) (not ?I6)))))
(let (($x890146 (not ?Q6)))
(let (($x346192 (or $x890146 ?R6)))
(let (($x81717 (>= ?Z6 ?J1)))
(let (($x136925 (<= ?Z6 ?J1)))
(let (($x555369 (>= ?W6 ?C6)))
(let (($x372688 (<= ?W6 ?C6)))
(let (($x445472 (and ?Z5 ?D7 (not ?M6) (<= ?V6 ?Z) (>= ?V6 ?Z) $x372688 $x555369 (<= ?Y6 ?F6) (>= ?Y6 ?F6) $x136925 $x81717)))
(let (($x251592 (and ?K6 ?C7 ?P6 (<= ?V6 ?Z) (>= ?V6 ?Z) $x372688 $x555369 (<= ?Y6 ?F6) (>= ?Y6 ?F6) $x136925 $x81717)))
(let (($x502933 (and ?N6 ?B7 (not ?S6) (<= ?V6 1.0) (>= ?V6 1.0) $x372688 $x555369 (<= ?Y6 2.0) (>= ?Y6 2.0) $x136925 $x81717)))
(let (($x333793 (and ?Q6 ?U6 (<= ?V6 1.0) (>= ?V6 1.0) (<= ?W6 ?X6) (>= ?W6 ?X6) (<= ?Y6 2.0) (>= ?Y6 2.0) (<= ?Z6 ?A7) (>= ?Z6 ?A7))))
(let (($x343144 (not ?T6)))
(let (($x134607 (or $x343144 (and ?U6 (not ?B7) (not ?C7) (not ?D7)) (and ?B7 (not ?U6) (not ?C7) (not ?D7)) (and ?C7 (not ?U6) (not ?B7) (not ?D7)) (and ?D7 (not ?U6) (not ?B7) (not ?C7)))))
(let (($x417897 (not ?K7)))
(let (($x856101 (or $x417897 ?L7)))
(let (($x854255 (and ?T1 ?O7 (<= ?A ?T) (>= ?A ?T) (<= ?B ?U) (>= ?B ?U) (<= ?C ?V) (>= ?C ?V) (<= ?D ?W) (>= ?D ?W) (<= ?E ?X) (>= ?E ?X) (<= ?F ?Y) (>= ?F ?Y) (<= ?G ?Z) (>= ?G ?Z) (<= ?H ?P7) (>= ?H ?P7) (<= ?I ?A1) (>= ?I ?A1) (<= ?J ?B1) (>= ?J ?B1) (<= ?K ?C1) (>= ?K ?C1) (<= ?L ?D1) (>= ?L ?D1) (<= ?M ?E1) (>= ?M ?E1) (<= ?N ?F1) (>= ?N ?F1) (<= ?O ?G1) (>= ?O ?G1) (<= ?P ?H1) (>= ?P ?H1) (<= ?Q ?I1) (>= ?Q ?I1) (<= ?R ?J1) (>= ?R ?J1))))
(let (($x626738 (and ?H7 (not ?S) (<= ?A ?F2) (>= ?A ?F2) (<= ?B ?Z2) (>= ?B ?Z2) (<= ?C ?T3) (>= ?C ?T3) (<= ?D ?N4) (>= ?D ?N4) (<= ?E ?H5) (>= ?E ?H5) (<= ?F ?B6) (>= ?F ?B6) (<= ?G ?V6) (>= ?G ?V6) (<= ?H 1.0) (>= ?H 1.0) (<= ?I ?W6) (>= ?I ?W6) (<= ?J ?I2) (>= ?J ?I2) (<= ?K ?J2) (>= ?K ?J2) (<= ?L ?C3) (>= ?L ?C3) (<= ?M ?W3) (>= ?M ?W3) (<= ?N ?Q4) (>= ?N ?Q4) (<= ?O ?K5) (>= ?O ?K5) (<= ?P ?E6) (>= ?P ?E6) (<= ?Q ?Y6) (>= ?Q ?Y6) (<= ?R 2.0) (>= ?R 2.0))))
(let (($x820177 (and ?K7 (<= ?A ?F2) (>= ?A ?F2) (<= ?B ?Z2) (>= ?B ?Z2) (<= ?C ?T3) (>= ?C ?T3) (<= ?D ?N4) (>= ?D ?N4) (<= ?E ?H5) (>= ?E ?H5) (<= ?F ?B6) (>= ?F ?B6) (<= ?G ?V6) (>= ?G ?V6) (<= ?H 1.0) (>= ?H 1.0) (<= ?I ?M7) (>= ?I ?M7) (<= ?J ?I2) (>= ?J ?I2) (<= ?K ?N7) (>= ?K ?N7) (<= ?L ?C3) (>= ?L ?C3) (<= ?M ?W3) (>= ?M ?W3) (<= ?N ?Q4) (>= ?N ?Q4) (<= ?O ?K5) (>= ?O ?K5) (<= ?P ?E6) (>= ?P ?E6) (<= ?Q ?Y6) (>= ?Q ?Y6) (<= ?R 2.0) (>= ?R 2.0))))
(let (($x467102 (= ?Z7 (or ?Y7 ?T7))))
(let (($x796028 (= ?A8 (or ?Z7 ?U7))))
(let (($x250700 (= ?B8 (or ?A8 ?V7))))
(let (($x648821 (= ?C8 (or ?B8 ?W7))))
(let (($x830075 (= ?N8 (or ?M8 ?G8))))
(let (($x501850 (= ?O8 (or ?N8 ?H8))))
(let (($x261228 (= ?P8 (or ?O8 ?I8))))
(let (($x129433 (= ?Q8 (or ?P8 ?J8))))
(let (($x753864 (|cp-rel-bb.i190.i| ?S ?T ?U ?V ?W ?X ?Y ?Z ?A1 ?B1 ?C1 ?D1 ?E1 ?F1 ?G1 ?H1 ?I1 ?J1)))
(let (($x152650 (and $x753864 (= ?I9 (= ?F2 1.0)) (= ?M7 (+ 1.0 ?W6)) (= ?J7 (= ?H9 0.0)) (= ?G7 (= ?Z6 0.0)) (= ?A7 (ite ?S 0.0 ?J1)) (= ?X6 (+ 1.0 ?C6)) (= ?S6 (= ?Z 1.0)) (= ?P6 (= ?G9 0.0)) (= ?M6 (= ?F6 0.0)) (= ?G6 (ite ?F9 0.0 ?I1)) (= ?F9 (= ?Z 1.0)) (= ?D6 (+ 1.0 ?I5)) (= ?Y5 (= ?Y 1.0)) (= ?V5 (= ?E9 0.0)) (= ?S5 (= ?L5 0.0)) (= ?M5 (ite ?D9 0.0 ?H1)) (= ?D9 (= ?Y 1.0)) (= ?J5 (+ 1.0 ?O4)) (= ?E5 (= ?X 1.0)) (= ?B5 (= ?C9 0.0)) (= ?Y4 (= ?R4 0.0)) (= ?S4 (ite ?B9 0.0 ?G1)) (= ?B9 (= ?X 1.0)) (= ?P4 (+ 1.0 ?U3)) (= ?K4 (= ?W 1.0)) (= ?H4 (= ?A9 0.0)) (= ?E4 (= ?X3 0.0)) (= ?Y3 (ite ?Z8 0.0 ?F1)) (= ?Z8 (= ?W 1.0)) (= ?V3 (+ 1.0 ?A3)) (= ?Q3 (= ?V 1.0)) (= ?N3 (= ?Y8 0.0)) (= ?K3 (= ?D3 0.0)) (= ?E3 (ite ?X8 0.0 ?E1)) (= ?X8 (= ?V 1.0)) (= ?B3 (+ 1.0 ?G2)) (= ?W2 (= ?U 1.0)) (= ?T2 (= ?W8 0.0)) (= ?Q2 (= ?K2 0.0)) (= ?L2 (ite ?V8 0.0 ?D1)) (= ?V8 (= ?U 1.0)) (= ?B2 (or ?T8 ?S8)) (= ?T8 (= ?U8 5.0)) (= ?S8 (not (= ?R8 ?A1))) (= ?R8 (+ 7.0 ?B1)) (= ?O7 (or ?Q8 ?K8)) $x129433 $x261228 $x501850 $x830075 (= ?M8 (or ?L8 ?F8)) (= ?L8 (or ?E8 ?D8)) (= ?K8 (= ?J1 0.0)) (= ?J8 (= ?I1 0.0)) (= ?I8 (= ?H1 0.0)) (= ?H8 (= ?G1 0.0)) (= ?G8 (= ?F1 0.0)) (= ?F8 (= ?E1 0.0)) (= ?E8 (= ?D1 0.0)) (= ?D8 (= ?C1 0.0)) (= ?Y1 (= ?T 1.0)) (= ?V1 (or ?C8 ?X7)) $x648821 $x250700 $x796028 $x467102 (= ?Y7 (or ?S7 ?R7)) (= ?X7 (= ?J1 0.0)) (= ?W7 (= ?I1 0.0)) (= ?V7 (= ?H1 0.0)) (= ?U7 (= ?G1 0.0)) (= ?T7 (= ?F1 0.0)) (= ?S7 (= ?E1 0.0)) (= ?R7 (= ?D1 0.0)) (= ?S1 (= ?Q7 0.0)) (= ?N1 (= ?C1 0.0)) (or $x820177 $x626738 $x854255) $x856101 (or $x417897 (and ?H7 ?L7 ?S)) (or (not ?H7) ?I7) (or (not ?H7) (and ?E7 ?I7 (not ?J7))) (or (not ?E7) ?F7) (or (not ?E7) (and ?T6 ?F7 ?G7)) $x134607 (or $x343144 $x333793 $x502933 $x251592 $x445472) $x346192 (or $x890146 (and ?N6 ?R6 ?S6)) (or (not ?N6) ?O6) (or (not ?N6) (and ?K6 ?O6 (not ?P6))) (or (not ?K6) ?L6) (or (not ?K6) (and ?Z5 ?L6 ?M6)) $x379196 (or $x584438 $x191887 $x195716 $x192321 $x918189) $x770593 (or $x153329 (and ?T5 ?X5 ?Y5)) (or (not ?T5) ?U5) (or (not ?T5) (and ?Q5 ?U5 (not ?V5))) (or (not ?Q5) ?R5) (or (not ?Q5) (and ?F5 ?R5 ?S5)) $x376624 (or $x871212 $x187719 $x368359 $x116525 $x29634) $x345141 (or $x596976 (and ?Z4 ?D5 ?E5)) (or (not ?Z4) ?A5) (or (not ?Z4) (and ?W4 ?A5 (not ?B5))) (or (not ?W4) ?X4) (or (not ?W4) (and ?L4 ?X4 ?Y4)) $x639374 (or $x649768 $x478947 $x345738 $x522934 $x438395) $x757861 (or $x278462 (and ?F4 ?J4 ?K4)) (or (not ?F4) ?G4) (or (not ?F4) (and ?C4 ?G4 (not ?H4))) (or (not ?C4) ?D4) (or (not ?C4) (and ?R3 ?D4 ?E4)) $x288892 (or $x489737 $x80170 $x168221 $x31651 $x57265) $x42201 (or $x191600 (and ?L3 ?P3 ?Q3)) (or (not ?L3) ?M3) (or (not ?L3) (and ?I3 ?M3 (not ?N3))) (or (not ?I3) ?J3) (or (not ?I3) (and ?X2 ?J3 ?K3)) $x86197 (or $x568395 $x195337 $x559303 $x507205 $x578847) $x920371 (or $x867946 (and ?R2 ?V2 ?W2)) (or (not ?R2) ?S2) (or (not ?R2) (and ?O2 ?S2 (not ?T2))) (or (not ?O2) ?P2) (or (not ?O2) (and ?D2 ?P2 ?Q2)) $x317157 (or (not ?D2) $x574996 $x900312 $x259919) (or (not ?Z1) (and ?A2 (not ?C2)) (and ?C2 (not ?A2))) $x303035 $x554294 (or $x857180 (and ?Q1 ?X1 ?Y1)) (or (not ?T1) ?U1) (or (not ?T1) (and ?O1 ?U1 (not ?V1))) (or (not ?Q1) ?R1) (or (not ?Q1) (and ?K1 ?R1 (not ?S1))) (or (not ?O1) ?P1) (or (not ?O1) (and ?L1 ?P1 (not ?N1))) (or (not ?K1) ?M1) (or (not ?K1) (and ?L1 ?M1 ?N1)) (= ?N7 (ite ?I9 0.0 ?J2)))))
(=> $x152650 $x486795)))))))))))))))))))))))))))))))))))))))))))))))))))))))))))))))))))))))))))))))))))))))))))))))))
)
(assert (forall ((?A Real) (?B Real) (?C Real) (?D Real) (?E Real) (?F Real) (?G Real) (?H Real) (?I Real) (?J Real) (?K Real) (?L Real) (?M Real) (?N Real) (?O Real) (?P Real) (?Q Real) (?R Real) (?S Bool) (?T Real) (?U Real) (?V Real) (?W Real) (?X Real) (?Y Real) (?Z Real) (?A1 Real) (?B1 Real) (?C1 Real) (?D1 Real) (?E1 Real) (?F1 Real) (?G1 Real) (?H1 Real) (?I1 Real) (?J1 Real) (?K1 Bool) )(let (($x615296 (|cp-rel-bb.i190.i| ?S ?T ?U ?V ?W ?X ?Y ?Z ?A1 ?B1 ?C1 ?D1 ?E1 ?F1 ?G1 ?H1 ?I1 ?J1)))
(let (($x261834 (= ?K1 true)))
(let (($x645126 (|cp-rel-bb.i190.i.outer| ?A ?B ?C ?D ?E ?F ?G ?H ?I ?J ?K ?L ?M ?N ?O ?P ?Q ?R)))
(let (($x536228 (and $x645126 (>= ?J1 ?R) (<= ?J1 ?R) (>= ?I1 ?Q) (<= ?I1 ?Q) (>= ?H1 ?P) (<= ?H1 ?P) (>= ?G1 ?O) (<= ?G1 ?O) (>= ?F1 ?N) (<= ?F1 ?N) (>= ?E1 ?M) (<= ?E1 ?M) (>= ?D1 ?L) (<= ?D1 ?L) (>= ?C1 ?K) (<= ?C1 ?K) (>= ?B1 ?J) (<= ?B1 ?J) (>= ?A1 ?I) (<= ?A1 ?I) (>= ?Z ?G) (<= ?Z ?G) (>= ?Y ?F) (<= ?Y ?F) (>= ?X ?E) (<= ?X ?E) (>= ?W ?D) (<= ?W ?D) (>= ?V ?C) (<= ?V ?C) (>= ?U ?B) (<= ?U ?B) (>= ?T ?A) (<= ?T ?A) $x261834 (= ?S (= ?H 1.0)))))
(=> $x536228 $x615296))))))
)
(assert (forall ((?A Bool) (?B Real) (?C Real) (?D Real) (?E Real) (?F Real) (?G Real) (?H Real) (?I Real) (?J Real) (?K Real) (?L Real) (?M Real) (?N Real) (?O Real) (?P Real) (?Q Real) (?R Real) (?S Bool) (?T Bool) (?U Bool) (?V Bool) (?W Bool) (?X Bool) (?Y Bool) (?Z Bool) (?A1 Bool) (?B1 Bool) (?C1 Bool) (?D1 Bool) (?E1 Bool) (?F1 Bool) (?G1 Bool) (?H1 Bool) (?I1 Bool) (?J1 Bool) (?K1 Bool) (?L1 Real) (?M1 Real) (?N1 Real) (?O1 Real) (?P1 Real) (?Q1 Real) (?R1 Real) (?S1 Bool) (?T1 Bool) (?U1 Bool) (?V1 Bool) (?W1 Bool) (?X1 Bool) (?Y1 Bool) (?Z1 Bool) (?A2 Bool) (?B2 Bool) (?C2 Bool) (?D2 Bool) (?E2 Bool) (?F2 Real) (?G2 Real) (?H2 Real) (?I2 Real) (?J2 Real) (?K2 Real) (?L2 Bool) (?M2 Bool) (?N2 Bool) (?O2 Bool) (?P2 Bool) (?Q2 Bool) (?R2 Bool) (?S2 Bool) (?T2 Bool) (?U2 Bool) (?V2 Bool) (?W2 Bool) (?X2 Bool) (?Y2 Bool) (?Z2 Real) (?A3 Real) (?B3 Real) (?C3 Real) (?D3 Real) (?E3 Real) (?F3 Bool) (?G3 Bool) (?H3 Bool) (?I3 Bool) (?J3 Bool) (?K3 Bool) (?L3 Bool) (?M3 Bool) (?N3 Bool) (?O3 Bool) (?P3 Bool) (?Q3 Bool) (?R3 Bool) (?S3 Bool) (?T3 Real) (?U3 Real) (?V3 Real) (?W3 Real) (?X3 Real) (?Y3 Real) (?Z3 Bool) (?A4 Bool) (?B4 Bool) (?C4 Bool) (?D4 Bool) (?E4 Bool) (?F4 Bool) (?G4 Bool) (?H4 Bool) (?I4 Bool) (?J4 Bool) (?K4 Bool) (?L4 Bool) (?M4 Bool) (?N4 Real) (?O4 Real) (?P4 Real) (?Q4 Real) (?R4 Real) (?S4 Real) (?T4 Bool) (?U4 Bool) (?V4 Bool) (?W4 Bool) (?X4 Bool) (?Y4 Bool) (?Z4 Bool) (?A5 Bool) (?B5 Bool) (?C5 Bool) (?D5 Bool) (?E5 Bool) (?F5 Bool) (?G5 Bool) (?H5 Real) (?I5 Real) (?J5 Real) (?K5 Real) (?L5 Real) (?M5 Real) (?N5 Bool) (?O5 Bool) (?P5 Bool) (?Q5 Bool) (?R5 Bool) (?S5 Bool) (?T5 Bool) (?U5 Bool) (?V5 Bool) (?W5 Bool) (?X5 Bool) (?Y5 Bool) (?Z5 Bool) (?A6 Bool) (?B6 Real) (?C6 Real) (?D6 Real) (?E6 Real) (?F6 Real) (?G6 Real) (?H6 Bool) (?I6 Bool) (?J6 Bool) (?K6 Bool) (?L6 Bool) (?M6 Bool) (?N6 Bool) (?O6 Real) (?P6 Bool) (?Q6 Bool) (?R6 Bool) (?S6 Bool) (?T6 Bool) (?U6 Bool) (?V6 Bool) (?W6 Bool) (?X6 Bool) (?Y6 Bool) (?Z6 Bool) (?A7 Bool) (?B7 Real) (?C7 Bool) (?D7 Bool) (?E7 Real) (?F7 Bool) (?G7 Real) (?H7 Bool) (?I7 Real) (?J7 Bool) (?K7 Real) (?L7 Bool) (?M7 Real) (?N7 Bool) (?O7 Real) (?P7 Bool) (?Q7 Real) (?R7 Real) (?S7 Real) (?T7 Real) (?U7 Real) (?V7 Real) (?W7 Real) (?X7 Real) (?Y7 Real) (?Z7 Real) (?A8 Real) (?B8 Real) (?C8 Real) (?D8 Real) (?E8 Real) (?F8 Real) (?G8 Real) (?H8 Real) (?I8 Real) )(let (($x647225 (|cp-rel-bb.i190.i| ?A ?S7 ?T7 ?U7 ?V7 ?W7 ?X7 ?Y7 ?Z7 ?A8 ?B8 ?C8 ?D8 ?E8 ?F8 ?G8 ?H8 ?I8)))
(let (($x857180 (not ?W)))
(let (($x554294 (or $x857180 ?X)))
(let (($x610191 (or (not ?F1) (and ?C1 ?G1 (not ?H1)) (and ?Y ?I1 (not ?E1)))))
(let (($x384422 (and ?W ?T1 ?B1 (<= ?L1 ?B) (>= ?L1 ?B) (<= ?M1 ?I) (>= ?M1 ?I) (<= ?O1 ?J) (>= ?O1 ?J) (<= ?P1 ?K) (>= ?P1 ?K) (<= ?Q1 ?L) (>= ?Q1 ?L))))
(let (($x74050 (and ?S ?S1 ?A1 (<= ?L1 ?B) (>= ?L1 ?B) (<= ?M1 ?I) (>= ?M1 ?I) (<= ?O1 ?J) (>= ?O1 ?J) (<= ?P1 ?K) (>= ?P1 ?K) (<= ?Q1 ?L) (>= ?Q1 ?L))))
(let (($x323436 (and ?F1 ?K1 (<= ?L1 1.0) (>= ?L1 1.0) (<= ?M1 ?N1) (>= ?M1 ?N1) (<= ?O1 ?N1) (>= ?O1 ?N1) (<= ?P1 2.0) (>= ?P1 2.0) (<= ?Q1 ?R1) (>= ?Q1 ?R1))))
(let (($x338500 (or (not ?J1) (and ?K1 (not ?S1) (not ?T1)) (and ?S1 (not ?K1) (not ?T1)) (and ?T1 (not ?K1) (not ?S1)))))
(let (($x867946 (not ?U1)))
(let (($x920371 (or $x867946 ?V1)))
(let (($x456261 (>= ?J2 ?M)))
(let (($x404348 (<= ?J2 ?M)))
(let (($x88145 (>= ?G2 ?M1)))
(let (($x466978 (<= ?G2 ?M1)))
(let (($x347102 (and ?J1 ?N2 (not ?W1) (<= ?F2 ?C) (>= ?F2 ?C) $x466978 $x88145 (<= ?I2 ?Q1) (>= ?I2 ?Q1) $x404348 $x456261)))
(let (($x481795 (and ?U1 ?M2 ?Z1 (<= ?F2 ?C) (>= ?F2 ?C) $x466978 $x88145 (<= ?I2 ?Q1) (>= ?I2 ?Q1) $x404348 $x456261)))
(let (($x640402 (and ?X1 ?L2 (not ?C2) (<= ?F2 1.0) (>= ?F2 1.0) $x466978 $x88145 (<= ?I2 2.0) (>= ?I2 2.0) $x404348 $x456261)))
(let (($x289198 (and ?A2 ?E2 (<= ?F2 1.0) (>= ?F2 1.0) (<= ?G2 ?H2) (>= ?G2 ?H2) (<= ?I2 2.0) (>= ?I2 2.0) (<= ?J2 ?K2) (>= ?J2 ?K2))))
(let (($x281278 (or (not ?D2) (and ?E2 (not ?L2) (not ?M2) (not ?N2)) (and ?L2 (not ?E2) (not ?M2) (not ?N2)) (and ?M2 (not ?E2) (not ?L2) (not ?N2)) (and ?N2 (not ?E2) (not ?L2) (not ?M2)))))
(let (($x191600 (not ?O2)))
(let (($x42201 (or $x191600 ?P2)))
(let (($x635314 (>= ?D3 ?N)))
(let (($x239305 (<= ?D3 ?N)))
(let (($x534104 (>= ?A3 ?G2)))
(let (($x11822 (<= ?A3 ?G2)))
(let (($x636924 (and ?D2 ?H3 (not ?Q2) (<= ?Z2 ?D) (>= ?Z2 ?D) $x11822 $x534104 (<= ?C3 ?J2) (>= ?C3 ?J2) $x239305 $x635314)))
(let (($x271399 (and ?O2 ?G3 ?T2 (<= ?Z2 ?D) (>= ?Z2 ?D) $x11822 $x534104 (<= ?C3 ?J2) (>= ?C3 ?J2) $x239305 $x635314)))
(let (($x199759 (and ?R2 ?F3 (not ?W2) (<= ?Z2 1.0) (>= ?Z2 1.0) $x11822 $x534104 (<= ?C3 2.0) (>= ?C3 2.0) $x239305 $x635314)))
(let (($x258183 (and ?U2 ?Y2 (<= ?Z2 1.0) (>= ?Z2 1.0) (<= ?A3 ?B3) (>= ?A3 ?B3) (<= ?C3 2.0) (>= ?C3 2.0) (<= ?D3 ?E3) (>= ?D3 ?E3))))
(let (($x323022 (or (not ?X2) (and ?Y2 (not ?F3) (not ?G3) (not ?H3)) (and ?F3 (not ?Y2) (not ?G3) (not ?H3)) (and ?G3 (not ?Y2) (not ?F3) (not ?H3)) (and ?H3 (not ?Y2) (not ?F3) (not ?G3)))))
(let (($x278462 (not ?I3)))
(let (($x757861 (or $x278462 ?J3)))
(let (($x175451 (>= ?X3 ?O)))
(let (($x486387 (<= ?X3 ?O)))
(let (($x853741 (>= ?U3 ?A3)))
(let (($x200023 (<= ?U3 ?A3)))
(let (($x494255 (and ?X2 ?B4 (not ?K3) (<= ?T3 ?E) (>= ?T3 ?E) $x200023 $x853741 (<= ?W3 ?D3) (>= ?W3 ?D3) $x486387 $x175451)))
(let (($x862503 (and ?I3 ?A4 ?N3 (<= ?T3 ?E) (>= ?T3 ?E) $x200023 $x853741 (<= ?W3 ?D3) (>= ?W3 ?D3) $x486387 $x175451)))
(let (($x99813 (and ?L3 ?Z3 (not ?Q3) (<= ?T3 1.0) (>= ?T3 1.0) $x200023 $x853741 (<= ?W3 2.0) (>= ?W3 2.0) $x486387 $x175451)))
(let (($x12842 (and ?O3 ?S3 (<= ?T3 1.0) (>= ?T3 1.0) (<= ?U3 ?V3) (>= ?U3 ?V3) (<= ?W3 2.0) (>= ?W3 2.0) (<= ?X3 ?Y3) (>= ?X3 ?Y3))))
(let (($x866608 (or (not ?R3) (and ?S3 (not ?Z3) (not ?A4) (not ?B4)) (and ?Z3 (not ?S3) (not ?A4) (not ?B4)) (and ?A4 (not ?S3) (not ?Z3) (not ?B4)) (and ?B4 (not ?S3) (not ?Z3) (not ?A4)))))
(let (($x596976 (not ?C4)))
(let (($x345141 (or $x596976 ?D4)))
(let (($x485006 (>= ?R4 ?P)))
(let (($x170042 (<= ?R4 ?P)))
(let (($x577754 (>= ?O4 ?U3)))
(let (($x851577 (<= ?O4 ?U3)))
(let (($x480162 (and ?R3 ?V4 (not ?E4) (<= ?N4 ?F) (>= ?N4 ?F) $x851577 $x577754 (<= ?Q4 ?X3) (>= ?Q4 ?X3) $x170042 $x485006)))
(let (($x246219 (and ?C4 ?U4 ?H4 (<= ?N4 ?F) (>= ?N4 ?F) $x851577 $x577754 (<= ?Q4 ?X3) (>= ?Q4 ?X3) $x170042 $x485006)))
(let (($x575583 (and ?F4 ?T4 (not ?K4) (<= ?N4 1.0) (>= ?N4 1.0) $x851577 $x577754 (<= ?Q4 2.0) (>= ?Q4 2.0) $x170042 $x485006)))
(let (($x215284 (and ?I4 ?M4 (<= ?N4 1.0) (>= ?N4 1.0) (<= ?O4 ?P4) (>= ?O4 ?P4) (<= ?Q4 2.0) (>= ?Q4 2.0) (<= ?R4 ?S4) (>= ?R4 ?S4))))
(let (($x923145 (or (not ?L4) (and ?M4 (not ?T4) (not ?U4) (not ?V4)) (and ?T4 (not ?M4) (not ?U4) (not ?V4)) (and ?U4 (not ?M4) (not ?T4) (not ?V4)) (and ?V4 (not ?M4) (not ?T4) (not ?U4)))))
(let (($x153329 (not ?W4)))
(let (($x770593 (or $x153329 ?X4)))
(let (($x465254 (>= ?L5 ?Q)))
(let (($x349740 (<= ?L5 ?Q)))
(let (($x874468 (>= ?I5 ?O4)))
(let (($x348862 (<= ?I5 ?O4)))
(let (($x582521 (and ?L4 ?P5 (not ?Y4) (<= ?H5 ?G) (>= ?H5 ?G) $x348862 $x874468 (<= ?K5 ?R4) (>= ?K5 ?R4) $x349740 $x465254)))
(let (($x270339 (and ?W4 ?O5 ?B5 (<= ?H5 ?G) (>= ?H5 ?G) $x348862 $x874468 (<= ?K5 ?R4) (>= ?K5 ?R4) $x349740 $x465254)))
(let (($x421930 (and ?Z4 ?N5 (not ?E5) (<= ?H5 1.0) (>= ?H5 1.0) $x348862 $x874468 (<= ?K5 2.0) (>= ?K5 2.0) $x349740 $x465254)))
(let (($x10645 (and ?C5 ?G5 (<= ?H5 1.0) (>= ?H5 1.0) (<= ?I5 ?J5) (>= ?I5 ?J5) (<= ?K5 2.0) (>= ?K5 2.0) (<= ?L5 ?M5) (>= ?L5 ?M5))))
(let (($x630532 (or (not ?F5) (and ?G5 (not ?N5) (not ?O5) (not ?P5)) (and ?N5 (not ?G5) (not ?O5) (not ?P5)) (and ?O5 (not ?G5) (not ?N5) (not ?P5)) (and ?P5 (not ?G5) (not ?N5) (not ?O5)))))
(let (($x890146 (not ?Q5)))
(let (($x346192 (or $x890146 ?R5)))
(let (($x169098 (>= ?F6 ?R)))
(let (($x282575 (<= ?F6 ?R)))
(let (($x916394 (>= ?C6 ?I5)))
(let (($x626129 (<= ?C6 ?I5)))
(let (($x865115 (and ?F5 ?J6 (not ?S5) (<= ?B6 ?H) (>= ?B6 ?H) $x626129 $x916394 (<= ?E6 ?L5) (>= ?E6 ?L5) $x282575 $x169098)))
(let (($x528370 (and ?Q5 ?I6 ?V5 (<= ?B6 ?H) (>= ?B6 ?H) $x626129 $x916394 (<= ?E6 ?L5) (>= ?E6 ?L5) $x282575 $x169098)))
(let (($x336970 (and ?T5 ?H6 (not ?Y5) (<= ?B6 1.0) (>= ?B6 1.0) $x626129 $x916394 (<= ?E6 2.0) (>= ?E6 2.0) $x282575 $x169098)))
(let (($x87600 (and ?W5 ?A6 (<= ?B6 1.0) (>= ?B6 1.0) (<= ?C6 ?D6) (>= ?C6 ?D6) (<= ?E6 2.0) (>= ?E6 2.0) (<= ?F6 ?G6) (>= ?F6 ?G6))))
(let (($x272298 (or (not ?Z5) (and ?A6 (not ?H6) (not ?I6) (not ?J6)) (and ?H6 (not ?A6) (not ?I6) (not ?J6)) (and ?I6 (not ?A6) (not ?H6) (not ?J6)) (and ?J6 (not ?A6) (not ?H6) (not ?I6)))))
(let (($x417897 (not ?K6)))
(let (($x856101 (or $x417897 ?L6)))
(let (($x454123 (not ?M6)))
(let (($x575249 (and ?Z5 $x454123 (<= ?S7 ?L1) (>= ?S7 ?L1) (<= ?T7 ?F2) (>= ?T7 ?F2) (<= ?U7 ?Z2) (>= ?U7 ?Z2) (<= ?V7 ?T3) (>= ?V7 ?T3) (<= ?W7 ?N4) (>= ?W7 ?N4) (<= ?X7 ?H5) (>= ?X7 ?H5) (<= ?Y7 ?B6) (>= ?Y7 ?B6) (<= ?Z7 ?C6) (>= ?Z7 ?C6) (<= ?A8 ?O1) (>= ?A8 ?O1) (<= ?B8 ?P1) (>= ?B8 ?P1) (<= ?C8 ?I2) (>= ?C8 ?I2) (<= ?D8 ?C3) (>= ?D8 ?C3) (<= ?E8 ?W3) (>= ?E8 ?W3) (<= ?F8 ?Q4) (>= ?F8 ?Q4) (<= ?G8 ?K5) (>= ?G8 ?K5) (<= ?H8 ?E6) (>= ?H8 ?E6) (<= ?I8 ?F6) (>= ?I8 ?F6))))
(let (($x386656 (and ?K6 ?N6 (<= ?S7 ?L1) (>= ?S7 ?L1) (<= ?T7 ?F2) (>= ?T7 ?F2) (<= ?U7 ?Z2) (>= ?U7 ?Z2) (<= ?V7 ?T3) (>= ?V7 ?T3) (<= ?W7 ?N4) (>= ?W7 ?N4) (<= ?X7 ?H5) (>= ?X7 ?H5) (<= ?Y7 ?B6) (>= ?Y7 ?B6) (<= ?Z7 ?C6) (>= ?Z7 ?C6) (<= ?A8 ?O1) (>= ?A8 ?O1) (<= ?B8 ?P1) (>= ?B8 ?P1) (<= ?C8 ?I2) (>= ?C8 ?I2) (<= ?D8 ?C3) (>= ?D8 ?C3) (<= ?E8 ?W3) (>= ?E8 ?W3) (<= ?F8 ?Q4) (>= ?F8 ?Q4) (<= ?G8 ?K5) (>= ?G8 ?K5) (<= ?H8 ?E6) (>= ?H8 ?E6) (<= ?I8 ?F6) (>= ?I8 ?F6))))
(let (($x467102 (= ?Z6 (or ?Y6 ?T6))))
(let (($x796028 (= ?A7 (or ?Z6 ?U6))))
(let (($x394616 (|cp-rel-bb.i190.i| ?A ?B ?C ?D ?E ?F ?G ?H ?I ?J ?K ?L ?M ?N ?O ?P ?Q ?R)))
(let (($x82921 (and $x394616 (= ?M6 (= ?F6 0.0)) (= ?G6 (ite ?A 0.0 ?R)) (= ?D6 (+ 1.0 ?I5)) (= ?Y5 (= ?H 1.0)) (= ?V5 (= ?Q7 0.0)) (= ?S5 (= ?L5 0.0)) (= ?M5 (ite ?P7 0.0 ?Q)) (= ?P7 (= ?H 1.0)) (= ?J5 (+ 1.0 ?O4)) (= ?E5 (= ?G 1.0)) (= ?B5 (= ?O7 0.0)) (= ?Y4 (= ?R4 0.0)) (= ?S4 (ite ?N7 0.0 ?P)) (= ?N7 (= ?G 1.0)) (= ?P4 (+ 1.0 ?U3)) (= ?K4 (= ?F 1.0)) (= ?H4 (= ?M7 0.0)) (= ?E4 (= ?X3 0.0)) (= ?Y3 (ite ?L7 0.0 ?O)) (= ?L7 (= ?F 1.0)) (= ?V3 (+ 1.0 ?A3)) (= ?Q3 (= ?E 1.0)) (= ?N3 (= ?K7 0.0)) (= ?K3 (= ?D3 0.0)) (= ?E3 (ite ?J7 0.0 ?N)) (= ?J7 (= ?E 1.0)) (= ?B3 (+ 1.0 ?G2)) (= ?W2 (= ?D 1.0)) (= ?T2 (= ?I7 0.0)) (= ?Q2 (= ?J2 0.0)) (= ?K2 (ite ?H7 0.0 ?M)) (= ?H7 (= ?D 1.0)) (= ?H2 (+ 1.0 ?M1)) (= ?C2 (= ?C 1.0)) (= ?Z1 (= ?G7 0.0)) (= ?W1 (= ?Q1 0.0)) (= ?R1 (ite ?F7 0.0 ?L)) (= ?F7 (= ?C 1.0)) (= ?H1 (or ?D7 ?C7)) (= ?D7 (= ?E7 5.0)) (= ?C7 (not (= ?B7 ?I))) (= ?B7 (+ 7.0 ?J)) (= ?E1 (= ?B 1.0)) (= ?B1 (or ?A7 ?V6)) $x796028 $x467102 (= ?Y6 (or ?X6 ?S6)) (= ?X6 (or ?W6 ?R6)) (= ?W6 (or ?Q6 ?P6)) (= ?V6 (= ?R 0.0)) (= ?U6 (= ?Q 0.0)) (= ?T6 (= ?P 0.0)) (= ?S6 (= ?O 0.0)) (= ?R6 (= ?N 0.0)) (= ?Q6 (= ?M 0.0)) (= ?P6 (= ?L 0.0)) (= ?A1 (= ?O6 0.0)) (= ?V (= ?K 0.0)) (or $x386656 $x575249) $x856101 (or $x417897 (and ?Z5 ?L6 ?M6)) $x272298 (or (not ?Z5) $x87600 $x336970 $x528370 $x865115) (or (not ?W5) ?X5) (or (not ?W5) (and ?T5 ?X5 ?Y5)) (or (not ?T5) ?U5) (or (not ?T5) (and ?Q5 ?U5 (not ?V5))) $x346192 (or $x890146 (and ?F5 ?R5 ?S5)) $x630532 (or (not ?F5) $x10645 $x421930 $x270339 $x582521) (or (not ?C5) ?D5) (or (not ?C5) (and ?Z4 ?D5 ?E5)) (or (not ?Z4) ?A5) (or (not ?Z4) (and ?W4 ?A5 (not ?B5))) $x770593 (or $x153329 (and ?L4 ?X4 ?Y4)) $x923145 (or (not ?L4) $x215284 $x575583 $x246219 $x480162) (or (not ?I4) ?J4) (or (not ?I4) (and ?F4 ?J4 ?K4)) (or (not ?F4) ?G4) (or (not ?F4) (and ?C4 ?G4 (not ?H4))) $x345141 (or $x596976 (and ?R3 ?D4 ?E4)) $x866608 (or (not ?R3) $x12842 $x99813 $x862503 $x494255) (or (not ?O3) ?P3) (or (not ?O3) (and ?L3 ?P3 ?Q3)) (or (not ?L3) ?M3) (or (not ?L3) (and ?I3 ?M3 (not ?N3))) $x757861 (or $x278462 (and ?X2 ?J3 ?K3)) $x323022 (or (not ?X2) $x258183 $x199759 $x271399 $x636924) (or (not ?U2) ?V2) (or (not ?U2) (and ?R2 ?V2 ?W2)) (or (not ?R2) ?S2) (or (not ?R2) (and ?O2 ?S2 (not ?T2))) $x42201 (or $x191600 (and ?D2 ?P2 ?Q2)) $x281278 (or (not ?D2) $x289198 $x640402 $x481795 $x347102) (or (not ?A2) ?B2) (or (not ?A2) (and ?X1 ?B2 ?C2)) (or (not ?X1) ?Y1) (or (not ?X1) (and ?U1 ?Y1 (not ?Z1))) $x920371 (or $x867946 (and ?J1 ?V1 ?W1)) $x338500 (or (not ?J1) $x323436 $x74050 $x384422) (or (not ?F1) (and ?G1 (not ?I1)) (and ?I1 (not ?G1))) $x610191 (or (not ?C1) ?D1) (or (not ?C1) (and ?Y ?D1 ?E1)) (or (not ?Y) ?Z) (or (not ?Y) (and ?S ?Z (not ?A1))) $x554294 (or $x857180 (and ?T ?X (not ?V))) (or (not ?S) ?U) (or (not ?S) (and ?T ?U ?V)) (= ?N6 (= ?R7 0.0)))))
(=> $x82921 $x647225)))))))))))))))))))))))))))))))))))))))))))))))))))))))))))))))))))))))))))))))))))))
)
(assert (forall ((?A Bool) (?B Real) (?C Real) (?D Real) (?E Real) (?F Real) (?G Real) (?H Real) (?I Real) (?J Real) (?K Real) (?L Real) (?M Real) (?N Real) (?O Real) (?P Real) (?Q Real) (?R Real) (?S Bool) (?T Bool) (?U Bool) (?V Bool) (?W Bool) (?X Bool) (?Y Bool) (?Z Bool) (?A1 Bool) (?B1 Bool) (?C1 Bool) (?D1 Bool) (?E1 Bool) (?F1 Bool) (?G1 Bool) (?H1 Bool) (?I1 Bool) (?J1 Bool) (?K1 Bool) (?L1 Bool) (?M1 Bool) (?N1 Bool) (?O1 Bool) (?P1 Bool) (?Q1 Bool) (?R1 Bool) (?S1 Bool) (?T1 Bool) (?U1 Bool) (?V1 Bool) (?W1 Bool) (?X1 Bool) (?Y1 Bool) (?Z1 Bool) (?A2 Real) (?B2 Real) (?C2 Real) (?D2 Real) (?E2 Real) (?F2 Real) (?G2 Real) (?H2 Real) (?I2 Real) (?J2 Real) (?K2 Real) (?L2 Real) (?M2 Real) (?N2 Real) (?O2 Real) (?P2 Real) (?Q2 Real) )(let (($x237379 (|cp-rel-__UFO__0| ?A2 ?B2 ?C2 ?D2 ?E2 ?F2 ?G2 ?H2 ?I2 ?J2 ?K2 ?L2 ?M2 ?N2 ?O2 ?P2 ?Q2 ?A ?B ?C ?D ?E ?F ?G ?H ?I ?J ?K ?L ?M ?N ?O ?P ?Q ?R)))
(let (($x796028 (= ?I1 (or ?H1 ?C1))))
(let (($x250700 (= ?J1 (or ?I1 ?D1))))
(let (($x648821 (= ?K1 (or ?J1 ?E1))))
(let (($x830075 (= ?V1 (or ?U1 ?O1))))
(let (($x501850 (= ?W1 (or ?V1 ?P1))))
(let (($x261228 (= ?X1 (or ?W1 ?Q1))))
(let (($x129433 (= ?Y1 (or ?X1 ?R1))))
(let (($x483190 (|cp-rel-bb.i190.i| ?A ?B ?C ?D ?E ?F ?G ?H ?I ?J ?K ?L ?M ?N ?O ?P ?Q ?R)))
(let (($x157861 (and $x483190 (= ?Z1 (or ?Y1 ?S1)) $x129433 $x261228 $x501850 $x830075 (= ?U1 (or ?N1 ?M1)) (= ?T1 (= ?R 0.0)) (= ?S1 (= ?Q 0.0)) (= ?R1 (= ?P 0.0)) (= ?Q1 (= ?O 0.0)) (= ?P1 (= ?N 0.0)) (= ?O1 (= ?M 0.0)) (= ?N1 (= ?L 0.0)) (= ?M1 (= ?K 0.0)) (= ?Y (or ?L1 ?G1)) (= ?L1 (or ?K1 ?F1)) $x648821 $x250700 $x796028 (= ?H1 (or ?B1 ?A1)) (= ?G1 (= ?R 0.0)) (= ?F1 (= ?Q 0.0)) (= ?E1 (= ?P 0.0)) (= ?D1 (= ?O 0.0)) (= ?C1 (= ?N 0.0)) (= ?B1 (= ?M 0.0)) (= ?A1 (= ?L 0.0)) (= ?T (= ?K 0.0)) (not (= ?Z true)) (= ?W true) (or (not ?W) ?X) (or (not ?W) (and ?U ?X (not ?Y))) (or (not ?U) ?V) (or (not ?U) (and ?S ?V (not ?T))) (= ?Z (or ?Z1 ?T1)))))
(=> $x157861 $x237379))))))))))))
)
(assert (forall ((?A Bool) (?B Real) (?C Real) (?D Real) (?E Real) (?F Real) (?G Real) (?H Real) (?I Real) (?J Real) (?K Real) (?L Real) (?M Real) (?N Real) (?O Real) (?P Real) (?Q Real) (?R Real) (?S Real) (?T Real) (?U Real) (?V Real) (?W Real) (?X Real) (?Y Real) (?Z Real) (?A1 Real) (?B1 Real) (?C1 Real) (?D1 Real) (?E1 Real) (?F1 Real) (?G1 Real) (?H1 Real) (?I1 Real) (?J1 Bool) )(let (($x164970 (|cp-rel-__UFO__0| ?B ?C ?D ?E ?F ?G ?H ?I ?J ?K ?L ?M ?N ?O ?P ?Q ?R ?A ?S ?T ?U ?V ?W ?X ?Y ?Z ?A1 ?B1 ?C1 ?D1 ?E1 ?F1 ?G1 ?H1 ?I1)))
(=> (and $x164970 (= ?J1 true)) $x164970)))
)
(assert (forall ((?A Bool) (?B Real) (?C Real) (?D Real) (?E Real) (?F Real) (?G Real) (?H Real) (?I Real) (?J Real) (?K Real) (?L Real) (?M Real) (?N Real) (?O Real) (?P Real) (?Q Real) (?R Real) (?S Bool) (?T Bool) (?U Bool) (?V Bool) (?W Bool) (?X Bool) (?Y Bool) (?Z Bool) (?A1 Bool) (?B1 Bool) (?C1 Bool) (?D1 Real) (?E1 Real) (?F1 Bool) (?G1 Bool) (?H1 Real) )(let (($x99753 (|cp-rel-bb.i190.i| ?A ?B ?C ?D ?E ?F ?G ?H ?I ?J ?K ?L ?M ?N ?O ?P ?Q ?R)))
(let (($x298499 (and $x99753 (= ?G1 (= ?H1 5.0)) (= ?F1 (not (= ?E1 ?I))) (= ?E1 (+ 7.0 ?J)) (= ?B1 (= ?B 1.0)) (= ?Y (= ?D1 0.0)) (= ?V (= ?K 0.0)) (= ?C1 true) (= ?Z true) (or (not ?Z) ?A1) (or (not ?Z) (and ?W ?A1 ?B1)) (or (not ?W) ?X) (or (not ?W) (and ?S ?X (not ?Y))) (or (not ?S) ?U) (or (not ?S) (and ?T ?U ?V)) (= ?C1 (or ?G1 ?F1)))))
(=> $x298499 |cp-rel-UnifiedReturnBlock|))))
)
(assert (not cp-rel-UnifiedReturnBlock))
(check-sat)
